% demand
num_movements = 14;
loading_factor = [850, 1300, 850, 950, 850, 1050, 900, 850, 1600, 1300, 1350, 800, 850, 1250];
pickup_time = [0, 0, 0, 0, 0, 1, 1, 1, 1, 1, 2, 2, 2, 2];
delivery_time = [1, 1, 1, 1, 1, 2, 4, 2, 3, 2, 4, 4, 4, 4];

% transporter definition
total_capacity = 7000;
num_decks = 3;
capacity = [3000, 1000, 3000];

% ways out of decks
num_ways_out = 1;
paths_out = array3d(decks, ways_out, decks, [
% ways out of deck d1
2, 3, 0, 

% ways out of deck d2
3, 0, 0, 

% ways out of deck d3
0, 0, 0,	

]);

